# Solution for model GasLib-40
# Objective value = 5.4772434169095462e+01
loadshed[innode_1] 0
loadshed[innode_2] 0
loadshed[innode_3] 0
loadshed[innode_4] 0
loadshed[innode_5] 0
loadshed[innode_6] 0
loadshed[innode_7] 0
loadshed[innode_8] 0
loadshed[source_1] -9.0786429335010022e-02
loadshed[source_2] 6.8349336395635563e-02
loadshed[source_3] 3.6890010723090016e-01
loadshed[sink_1] 0.464489559440182
loadshed[sink_2] 0
loadshed[sink_3] 0
loadshed[sink_4] 0
loadshed[sink_5] 0
loadshed[sink_6] 0
loadshed[sink_7] 0
loadshed[sink_8] 0
loadshed[sink_9] 0
loadshed[sink_10] 0
loadshed[sink_11] 0
loadshed[sink_12] 1
loadshed[sink_13] 0
loadshed[sink_14] 0
loadshed[sink_15] 0
loadshed[sink_16] 0
loadshed[sink_17] 0
loadshed[sink_18] 0
loadshed[sink_19] 0
loadshed[sink_20] 0
loadshed[sink_21] 1
loadshed[sink_22] 0
loadshed[sink_23] 0
loadshed[sink_24] 0.88465291204591
loadshed[sink_25] 0
loadshed[sink_26] 0
loadshed[sink_27] 0
loadshed[sink_28] 0
loadshed[sink_29] 0
flow[source_1,sink_3] 1.7244272960980209e+02
flow[innode_1,sink_16] 1.6354166666666970e+01
flow[innode_6,sink_13] 1.4708409313287525e+01
flow[sink_13,sink_14] -1.6457573533791425e+00
flow[sink_14,sink_10] -1.7999924020045810e+01
flow[sink_25,sink_26] 1.0441534803100998e+02
flow[sink_26,sink_9] 1.6354166666669244e+01
flow[sink_9,sink_18] 0
flow[sink_26,sink_4] 7.1707014697674083e+01
flow[sink_4,sink_20] 5.5352848031007476e+01
flow[sink_18,sink_6] -1.6354166666667879e+01
flow[sink_25,innode_8] -1.3973439627646570e+02
flow[sink_6,sink_7] -5.7820326996656576e+01
flow[sink_6,sink_22] 2.5111993663322025e+01
flow[sink_7,sink_24] 1.8864055009158491e+00
flow[sink_22,sink_1] 8.7578269966553570e+00
flow[sink_24,sink_21] 0
flow[sink_21,sink_12] 0
flow[sink_7,sink_5] -7.6060899164239075e+01
flow[sink_5,sink_17] -9.2415065830905746e+01
flow[sink_17,sink_4] 0
flow[sink_17,sink_8] -1.0876923249757237e+02
flow[sink_3,sink_23] 16.3541666666697
flow[sink_8,sink_20] -125.123399164239
flow[sink_25,sink_20] 86.1247177998982
flow[sink_25,sink_15] -8.1868245534397076e+01
flow[sink_15,sink_29] -5.5672351511369577e+01
flow[sink_29,sink_28] 1.6354166666667879e+01
flow[sink_29,sink_2] 5.8904227356360835e+01
flow[sink_2,sink_15] 4.2550060689694163e+01
flow[sink_29,innode_7] -1.4728491220106497e+02
flow[innode_4,sink_19] 8.3416590686713064e+01
flow[sink_19,innode_3] 3.2726179851444606e+01
flow[innode_4,innode_5] 1.6354166666679703e+01
flow[sink_27,innode_5] -1.6354166666679703e+01
flow[sink_27,sink_19] 0
flow[sink_10,sink_11] 3.2708333333333641e+01
flow[sink_10,innode_2] -3.4336244168601510e+01
flow[sink_10,innode_3] -3.2726179851444606e+01
flow[innode_6,sink_25] -1.4708409313287525e+01
flow[sink_11,innode_1] 1.6354166666666970e+01
flow[sink_19,innode_2] 3.4336244168601510e+01
flow[source_3,innode_4] 9.9770757353392767e+01
flow[source_2,innode_7] 1.4728491220106497e+02
flow[sink_3,innode_8] 1.3973439627646570e+02
pressure[innode_1] 7.5667317739349670e+01
pressure[innode_2] 7.7633831364596773e+01
pressure[innode_3] 77.5613629451536
pressure[innode_4] 81.01325
pressure[innode_5] 8.1002000741808786e+01
pressure[innode_6] 7.5045787694895566e+01
pressure[innode_7] 81.01325
pressure[innode_8] 8.0436839830424873e+01
pressure[source_1] 81.01325
pressure[source_2] 81.01325
pressure[source_3] 81.01325
pressure[sink_1] 1.0132500000000002e+00
pressure[sink_2] 7.5581845030212918e+01
pressure[sink_3] 8.0436839830424873e+01
pressure[sink_4] 5.8574860618103678e+01
pressure[sink_5] 3.4806176905610045e+01
pressure[sink_6] 2.3793084734488557e+00
pressure[sink_7] 3.1730437403130516e+00
pressure[sink_8] 4.5794577032381191e+01
pressure[sink_9] 6.6713036968862468e+01
pressure[sink_10] 7.5819019046953215e+01
pressure[sink_11] 7.5667317739349670e+01
pressure[sink_12] 1.01325
pressure[sink_13] 7.4964702692354948e+01
pressure[sink_14] 7.4967647915326353e+01
pressure[sink_15] 7.5442928459943388e+01
pressure[sink_16] 7.4645667904531990e+01
pressure[sink_17] 4.1690431314730375e+01
pressure[sink_18] 1.9426035306956160e+00
pressure[sink_19] 7.7633831364596773e+01
pressure[sink_20] 5.4513918309852556e+01
pressure[sink_21] 1.01325
pressure[sink_22] 1.5829094820764609e+00
pressure[sink_23] 8.0272121818765072e+01
pressure[sink_24] 1.01325
pressure[sink_25] 7.5045787694895566e+01
pressure[sink_26] 6.7691876052804886e+01
pressure[sink_27] 8.0866291377726043e+01
pressure[sink_28] 7.6778673312984978e+01
pressure[sink_29] 7.7073955586602153e+01
interdiction[source_1,sink_3] 0
interdiction[innode_1,sink_16] 0
interdiction[innode_6,sink_13] 0
interdiction[sink_13,sink_14] 0
interdiction[sink_14,sink_10] 0
interdiction[sink_25,sink_26] 0
interdiction[sink_26,sink_9] 0
interdiction[sink_9,sink_18] 1
interdiction[sink_26,sink_4] 0
interdiction[sink_4,sink_20] 0
interdiction[sink_18,sink_6] 0
interdiction[sink_25,innode_8] 0
interdiction[sink_6,sink_7] 0
interdiction[sink_6,sink_22] 0
interdiction[sink_7,sink_24] 0
interdiction[sink_22,sink_1] 0
interdiction[sink_24,sink_21] 0
interdiction[sink_21,sink_12] 0
interdiction[sink_7,sink_5] 0
interdiction[sink_5,sink_17] 0
interdiction[sink_17,sink_4] 1
interdiction[sink_17,sink_8] 0
interdiction[sink_3,sink_23] 0
interdiction[sink_8,sink_20] 0
interdiction[sink_25,sink_20] 0
interdiction[sink_25,sink_15] 0
interdiction[sink_15,sink_29] 0
interdiction[sink_29,sink_28] 0
interdiction[sink_29,sink_2] 0
interdiction[sink_2,sink_15] 0
interdiction[sink_29,innode_7] 0
interdiction[innode_4,sink_19] 0
interdiction[sink_19,innode_3] 0
interdiction[innode_4,innode_5] 0
interdiction[sink_27,innode_5] 0
interdiction[sink_27,sink_19] 1
interdiction[sink_10,sink_11] 0
interdiction[sink_10,innode_2] 0
interdiction[sink_10,innode_3] 0
interdiction[innode_6,sink_25] 0
interdiction[sink_11,innode_1] 0
interdiction[sink_19,innode_2] 0
interdiction[source_3,innode_4] 0
interdiction[source_2,innode_7] 0
interdiction[sink_3,innode_8] 0
WCcheckFlow[source_1,sink_3] 39
WCcheckFlow[innode_1,sink_16] 1
WCcheckFlow[innode_6,sink_13] 13
WCcheckFlow[sink_13,sink_14] 12
WCcheckFlow[sink_14,sink_10] 11
WCcheckFlow[sink_25,sink_26] 15
WCcheckFlow[sink_26,sink_9] 1
WCcheckFlow[sink_9,sink_18] 0
WCcheckFlow[sink_26,sink_4] 13
WCcheckFlow[sink_4,sink_20] 12
WCcheckFlow[sink_18,sink_6] -1
WCcheckFlow[sink_25,innode_8] -36
WCcheckFlow[sink_6,sink_7] -4
WCcheckFlow[sink_6,sink_22] 2
WCcheckFlow[sink_7,sink_24] 3
WCcheckFlow[sink_22,sink_1] 1
WCcheckFlow[sink_24,sink_21] 2
WCcheckFlow[sink_21,sink_12] 1
WCcheckFlow[sink_7,sink_5] -8
WCcheckFlow[sink_5,sink_17] -9
WCcheckFlow[sink_17,sink_4] 0
WCcheckFlow[sink_17,sink_8] -10
WCcheckFlow[sink_3,sink_23] 1
WCcheckFlow[sink_8,sink_20] -11
WCcheckFlow[sink_25,sink_20] 0
WCcheckFlow[sink_25,sink_15] 6
WCcheckFlow[sink_15,sink_29] 5
WCcheckFlow[sink_29,sink_28] 1
WCcheckFlow[sink_29,sink_2] 1
WCcheckFlow[sink_2,sink_15] 0
WCcheckFlow[sink_29,innode_7] 2
WCcheckFlow[innode_4,sink_19] -4
WCcheckFlow[sink_19,innode_3] -5
WCcheckFlow[innode_4,innode_5] 2
WCcheckFlow[sink_27,innode_5] -1
WCcheckFlow[sink_27,sink_19] 0
WCcheckFlow[sink_10,sink_11] 3
WCcheckFlow[sink_10,innode_2] 1
WCcheckFlow[sink_10,innode_3] 6
WCcheckFlow[innode_6,sink_25] -14
WCcheckFlow[sink_11,innode_1] 2
WCcheckFlow[sink_19,innode_2] 0
WCcheckFlow[source_3,innode_4] -1
WCcheckFlow[source_2,innode_7] -1
WCcheckFlow[sink_3,innode_8] 37
